$rem
 method = hf
 basis = sto-3g
 scf_convergence = 10
 thresh = 14
 scf_final_print = 3
 print_general_basis = true
 iprint = 1000
 symmetry = false
 sym_ignore = true
$end

$molecule
0 1
Li 0.0000 0.0000 0.0000
H  0.0000 0.0000 1.5949
$end
